NAME : local_10
TYPE : ATSP
DIMENSION : 7
EDGE_WEIGHT_TYPE : EXPLICIT
EDGE_WEIGHT_FORMAT : FULL_MATRIX
EDGE_WEIGHT_SECTION
0 796 527 730 847 510 0 
0 0 10000000 10000000 611 778 842 
0 10000000 0 282 10000000 10000000 527 
0 10000000 282 0 10000000 10000000 730 
0 611 10000000 10000000 0 526 829 
0 778 10000000 10000000 516 0 510 
0 10000000 10000000 10000000 10000000 10000000 0 
EOF